32
raw_data/mm-rcpsp/MMLIB50/J507_2.mm
Time limit set to 60 seconds
Running CP solver
/home/omastto1/General-Optimization-Solver/src/solvers/mmrcpsp.py:42(stream:276:6): Warning: Cumulative expression 'pulse': height is zero, expression is zero everywhere.
                                                                                               VarCumulAtom_419 = pulse(task_0_mode_0, 0)
/home/omastto1/General-Optimization-Solver/src/solvers/mmrcpsp.py:42(stream:276:3906): Warning: Cumulative expression 'pulse': height is zero, expression is zero everywhere.
                                                                                                  VarCumulAtom_570 = pulse(task_51_mode_0, 0)
/home/omastto1/General-Optimization-Solver/src/solvers/mmrcpsp.py:42(stream:277:6): Warning: Cumulative expression 'pulse': height is zero, expression is zero everywhere.
                                                                                               VarCumulAtom_574 = pulse(task_0_mode_0, 0)
/home/omastto1/General-Optimization-Solver/src/solvers/mmrcpsp.py:42(stream:277:3907): Warning: Cumulative expression 'pulse': height is zero, expression is zero everywhere.
                                                                                                  VarCumulAtom_725 = pulse(task_51_mode_0, 0)
 ! --------------------------------------------------- CP Optimizer 20.1.0.0 --
 ! Minimization problem - 205 variables, 268 constraints
 ! TimeLimit            = 60
 ! Workers              = 14
 ! LogVerbosity         = Terse
 ! Initial process time : 0.01s (0.01s extraction + 0.00s propagation)
 !  . Log search space  : 513.6 (before), 513.6 (after)
 !  . Memory usage      : 1.3 MB (before), 1.3 MB (after)
 ! Using parallel search with 14 workers.
 ! ----------------------------------------------------------------------------
 !          Best Branches  Non-fixed    W       Branch decision
                        0        205                 -
 + New bound is 23
 ! Using iterative diving.
 ! Using temporal relaxation.
                        0        205    1            -
 + New bound is 24
 *            56      627  0.76s        1      (gap is 57.14%)
 *            52      832  0.76s        1      (gap is 53.85%)
 *            49      990  0.76s        4      (gap is 51.02%)
 *            48     2561  1.38s        5      (gap is 50.00%)
 *            47     6530  2.61s        9      (gap is 48.94%)
 *            46     9186  3.21s        9      (gap is 47.83%)
 ! Using failure-directed search.
 *            45    23732  7.48s        2      (gap is 46.67%)
 *            44    31020  9.42s        6      (gap is 45.45%)
 *            43    79256  24.33s       3      (gap is 44.19%)
 ! ----------------------------------------------------------------------------
 ! Search terminated by limit, 9 solutions found.
 ! Best objective         : 43 (gap is 44.19%)
 ! Best bound             : 24
 ! ----------------------------------------------------------------------------
 ! Number of branches     : 5538167
 ! Number of fails        : 998549
 ! Total memory usage     : 19.9 MB (19.7 MB CP Optimizer + 0.2 MB Concert)
 ! Time spent in solve    : 60.03s (60.02s engine + 0.01s extraction)
 ! Search speed (br. / s) : 92287.4
 ! ----------------------------------------------------------------------------
task_0: (start=0, end=0, size=0, length=0)
Task 0 is scheduled in mode 0 from 0 to 0
task_1: (start=0, end=10, size=10, length=10)
Task 1 is scheduled in mode 2 from 0 to 10
task_2: (start=1, end=10, size=9, length=9)
Task 2 is scheduled in mode 2 from 1 to 10
task_3: (start=0, end=4, size=4, length=4)
Task 3 is scheduled in mode 1 from 0 to 4
task_4: (start=4, end=12, size=8, length=8)
Task 4 is scheduled in mode 2 from 4 to 12
task_5: (start=10, end=13, size=3, length=3)
Task 5 is scheduled in mode 2 from 10 to 13
task_6: (start=12, end=22, size=10, length=10)
Task 6 is scheduled in mode 2 from 12 to 22
task_7: (start=0, end=1, size=1, length=1)
Task 7 is scheduled in mode 1 from 0 to 1
task_8: (start=7, end=13, size=6, length=6)
Task 8 is scheduled in mode 2 from 7 to 13
task_9: (start=0, end=7, size=7, length=7)
Task 9 is scheduled in mode 2 from 0 to 7
task_10: (start=0, end=9, size=9, length=9)
Task 10 is scheduled in mode 1 from 0 to 9
task_11: (start=10, end=19, size=9, length=9)
Task 11 is scheduled in mode 2 from 10 to 19
task_12: (start=9, end=19, size=10, length=10)
Task 12 is scheduled in mode 2 from 9 to 19
task_13: (start=12, end=20, size=8, length=8)
Task 13 is scheduled in mode 2 from 12 to 20
task_14: (start=13, end=16, size=3, length=3)
Task 14 is scheduled in mode 0 from 13 to 16
task_15: (start=0, end=9, size=9, length=9)
Task 15 is scheduled in mode 2 from 0 to 9
task_16: (start=10, end=20, size=10, length=10)
Task 16 is scheduled in mode 2 from 10 to 20
task_17: (start=0, end=7, size=7, length=7)
Task 17 is scheduled in mode 2 from 0 to 7
task_18: (start=29, end=31, size=2, length=2)
Task 18 is scheduled in mode 0 from 29 to 31
task_19: (start=18, end=21, size=3, length=3)
Task 19 is scheduled in mode 0 from 18 to 21
task_20: (start=20, end=23, size=3, length=3)
Task 20 is scheduled in mode 0 from 20 to 23
task_21: (start=22, end=29, size=7, length=7)
Task 21 is scheduled in mode 2 from 22 to 29
task_22: (start=4, end=8, size=4, length=4)
Task 22 is scheduled in mode 2 from 4 to 8
task_23: (start=21, end=29, size=8, length=8)
Task 23 is scheduled in mode 1 from 21 to 29
task_24: (start=0, end=4, size=4, length=4)
Task 24 is scheduled in mode 2 from 0 to 4
task_25: (start=23, end=33, size=10, length=10)
Task 25 is scheduled in mode 2 from 23 to 33
task_26: (start=22, end=32, size=10, length=10)
Task 26 is scheduled in mode 2 from 22 to 32
task_27: (start=31, end=32, size=1, length=1)
Task 27 is scheduled in mode 0 from 31 to 32
task_28: (start=37, end=40, size=3, length=3)
Task 28 is scheduled in mode 0 from 37 to 40
task_29: (start=35, end=37, size=2, length=2)
Task 29 is scheduled in mode 1 from 35 to 37
task_30: (start=12, end=21, size=9, length=9)
Task 30 is scheduled in mode 2 from 12 to 21
task_31: (start=16, end=26, size=10, length=10)
Task 31 is scheduled in mode 2 from 16 to 26
task_32: (start=19, end=22, size=3, length=3)
Task 32 is scheduled in mode 0 from 19 to 22
task_33: (start=16, end=18, size=2, length=2)
Task 33 is scheduled in mode 0 from 16 to 18
task_34: (start=33, end=42, size=9, length=9)
Task 34 is scheduled in mode 2 from 33 to 42
task_35: (start=40, end=43, size=3, length=3)
Task 35 is scheduled in mode 0 from 40 to 43
task_36: (start=41, end=43, size=2, length=2)
Task 36 is scheduled in mode 2 from 41 to 43
task_37: (start=31, end=41, size=10, length=10)
Task 37 is scheduled in mode 2 from 31 to 41
task_38: (start=32, end=42, size=10, length=10)
Task 38 is scheduled in mode 2 from 32 to 42
task_39: (start=33, end=36, size=3, length=3)
Task 39 is scheduled in mode 0 from 33 to 36
task_40: (start=29, end=37, size=8, length=8)
Task 40 is scheduled in mode 1 from 29 to 37
task_41: (start=33, end=43, size=10, length=10)
Task 41 is scheduled in mode 2 from 33 to 43
task_42: (start=36, end=43, size=7, length=7)
Task 42 is scheduled in mode 2 from 36 to 43
task_43: (start=32, end=33, size=1, length=1)
Task 43 is scheduled in mode 0 from 32 to 33
task_44: (start=36, end=43, size=7, length=7)
Task 44 is scheduled in mode 2 from 36 to 43
task_45: (start=26, end=29, size=3, length=3)
Task 45 is scheduled in mode 2 from 26 to 29
task_46: (start=32, end=35, size=3, length=3)
Task 46 is scheduled in mode 0 from 32 to 35
task_47: (start=37, end=43, size=6, length=6)
Task 47 is scheduled in mode 2 from 37 to 43
task_48: (start=13, end=21, size=8, length=8)
Task 48 is scheduled in mode 2 from 13 to 21
task_49: (start=21, end=31, size=10, length=10)
Task 49 is scheduled in mode 2 from 21 to 31
task_50: (start=23, end=30, size=7, length=7)
Task 50 is scheduled in mode 2 from 23 to 30
task_51: (start=43, end=43, size=0, length=0)
Task 51 is scheduled in mode 0 from 43 to 43
Feasible solution found
Objective value: 43
Solution is 53.6 % worse than the lower bound.
